n_res = 4;
rc = [ 21, 20, 18, 25 ];
n_tasks = 30;
d = [ 5, 1, 1, 6, 7, 9, 5, 3, 7, 1, 9, 6, 5, 5, 7, 7, 4, 4, 10, 1, 7, 8, 3, 3, 9, 4, 5, 8, 8, 3 ];
rr = [| 4, 4, 0, 3, 0, 0, 2, 4, 9, 8, 9, 10, 1, 8, 0, 4, 10, 5, 4, 10, 3, 3, 8, 7, 1, 3, 10, 0, 0, 8
      | 9, 10, 1, 0, 1, 5, 2, 7, 0, 6, 0, 6, 9, 10, 8, 6, 5, 3, 0, 7, 3, 0, 1, 1, 7, 0, 1, 8, 1, 5
      | 10, 9, 0, 5, 0, 0, 6, 3, 4, 4, 7, 3, 1, 2, 0, 9, 10, 9, 5, 0, 3, 6, 9, 7, 9, 9, 3, 0, 9, 0
      | 4, 4, 1, 0, 8, 10, 0, 0, 1, 8, 0, 8, 5, 6, 0, 4, 4, 8, 5, 9, 10, 6, 5, 4, 0, 0, 0, 6, 0, 0 |];
suc = [ { 2 }, 
        { 3 }, 
        { 4 }, 
        { 5 }, 
        { 6 }, 
        { 7 }, 
        { 8 }, 
        { 9 }, 
        { 10 }, 
        { 11 }, 
        { 12 }, 
        { 13 }, 
        { 14 }, 
        { 15 }, 
        { 16 }, 
        { 17 }, 
        { 18 }, 
        { 19 }, 
        { 20 }, 
        { 21 }, 
        { 22 }, 
        { 23 }, 
        { 24 }, 
        { 25 }, 
        { 26 }, 
        { 27 }, 
        { 28 }, 
        { 29 }, 
        { 30 }, 
        {  }]; 
